c Output_time 26.03.2020 18:15:10_+0100 1585242910393930620
c ** Program information **
c program_name                          "QBRG_debug"
c version                               "0.3.20"
c date                                  "25.3.2020"
c gid_id                                "673970833836058123f633335630c185360d632e"
c author                                "Oliver Kullmann"
c url                                   "https://github.com/OKullmann/oklibrary/blob/master/Satisfiability/Transformers/Generators/Random/QBRG.cpp"
c ** Machine information **
c machine_name                          "chyna-Lenovo-G50-70"
c bogomips                              3791.08
c ** Compilation information **
c compiler_version                      "g++ 7.5.0"
c compilation_date                      "Mar_26_2020 11:16:30"
c compilation_options                   "--std=c++17 -pedantic -fmax-errors=5 -Wall -Wextra -g -D_GLIBCXX_DEBUG"
c NDEBUG                                0
c OPTIMIZE                              0
c ** Parameters **
c command-line                          "./QBRG_debug" "a40 e40 a40 40" "158*1,1|2-2,1|3-3,1|4-4,1" "" "1,t" ""
c output                                "QuBlRaGe_160_158_1585242910385959619.qdimacs"
c options                               "filtered,renamed"
c num_quantifier_blocks                 4
c  quantifier_blocks                    1:a1-40 2:e41-80 3:a81-120 4:e121-160
c num_clause-blocks                     1
c  clause-blocks                        158 * {1-40,1,1/2} | {41-80,1,1/2} | {81-120,1,1/2} | {121-160,1,1/2}
c num_e-seeds                           37+2=39
c  e-seeds                              1 0 1 0 5 160 2 40 0 40 1 40 0 40 1 158 4 1 1 1 1 2 2 2 1 1 2 3 3 1 1 2 4 4 1 1 2 1 1585242910385959089
p cnf 159 158
a 1 2 3 4 5 6 7 8 9 10 11 12 13 14 15 16 17 18 19 20 21 22 23 24 25 26 27 28 29 30 31 32 33 34 35 36 37 38 39 0
e 40 41 42 43 44 45 46 47 48 49 50 51 52 53 54 55 56 57 58 59 60 61 62 63 64 65 66 67 68 69 70 71 72 73 74 75 76 77 78 79 0
a 80 81 82 83 84 85 86 87 88 89 90 91 92 93 94 95 96 97 98 99 100 101 102 103 104 105 106 107 108 109 110 111 112 113 114 115 116 117 118 119 0
e 120 121 122 123 124 125 126 127 128 129 130 131 132 133 134 135 136 137 138 139 140 141 142 143 144 145 146 147 148 149 150 151 152 153 154 155 156 157 158 159 0
30 46 -106 -120 0
11 -79 104 120 0
7 -50 113 120 0
3 42 102 121 0
-17 -75 102 121 0
-36 -73 111 121 0
-22 45 82 -122 0
-19 44 105 -122 0
-37 -61 83 -123 0
20 -76 -87 -123 0
-11 -46 91 -123 0
11 50 92 -123 0
21 -77 97 -123 0
-20 -49 -106 -123 0
38 -49 -90 123 0
4 -72 112 123 0
-24 -57 117 123 0
10 -63 -90 -124 0
-6 59 -117 -124 0
-28 -42 -119 -124 0
-12 49 -84 124 0
1 76 98 124 0
-23 73 84 -125 0
6 43 -92 125 0
-9 46 -98 125 0
3 61 -113 125 0
18 -66 105 -126 0
29 45 85 126 0
-17 -55 103 126 0
4 -79 112 126 0
23 -45 -104 -127 0
-19 -56 83 127 0
22 -74 -90 127 0
-29 -46 -107 127 0
-7 59 -115 127 0
-28 -69 -115 127 0
-38 59 118 127 0
-27 76 93 -128 0
-27 -60 -92 128 0
37 41 80 -129 0
-14 41 94 129 0
-6 -51 -100 129 0
-24 47 117 129 0
34 56 -118 129 0
32 73 -84 -130 0
15 70 85 -130 0
19 -72 86 -130 0
-30 78 -108 130 0
-38 53 116 130 0
-28 49 -86 -131 0
10 44 -87 -131 0
32 50 107 131 0
-21 -79 109 131 0
37 -51 96 -132 0
-34 -43 -98 -132 0
4 52 -114 -132 0
28 58 96 132 0
2 52 -107 132 0
19 56 80 -133 0
11 68 101 -133 0
-2 -78 99 133 0
-1 74 -90 -134 0
27 -56 119 -134 0
-38 -42 90 134 0
-17 50 -103 134 0
30 -42 -84 -135 0
-31 43 -101 -135 0
9 -79 97 135 0
27 55 110 135 0
36 -66 -82 -136 0
1 -71 -92 -136 0
7 -73 -98 136 0
39 -60 84 -137 0
-7 55 -87 -138 0
3 -73 -98 -138 0
19 -70 103 -138 0
-34 70 80 138 0
8 -53 -119 138 0
-29 -54 -88 -139 0
-21 -44 -106 -139 0
32 48 -102 139 0
-13 -50 -85 -140 0
21 67 98 -140 0
24 -48 -94 140 0
-37 61 -98 140 0
17 -64 -100 140 0
-18 70 -85 141 0
19 69 -118 141 0
5 64 83 -142 0
15 45 -81 142 0
6 -62 -83 142 0
-24 48 119 142 0
25 62 -102 -143 0
-16 -46 -115 -143 0
30 48 -119 -143 0
9 -65 87 143 0
-26 61 108 143 0
-31 -79 -80 -144 0
-33 -69 91 -144 0
33 55 -88 144 0
-5 -69 100 144 0
28 53 119 144 0
37 51 104 -145 0
-26 78 -93 145 0
-36 -59 -99 145 0
-20 -48 98 -146 0
20 40 -102 146 0
15 45 103 146 0
-5 -76 -116 146 0
-3 -49 112 -147 0
38 56 -86 147 0
21 -79 108 147 0
-3 63 -94 -148 0
-7 73 98 -148 0
-13 -65 -109 -148 0
36 -56 -117 -148 0
17 -59 119 -148 0
-31 51 84 148 0
30 55 -94 148 0
38 -55 90 -149 0
21 46 -107 -149 0
20 -58 113 -149 0
28 72 -108 149 0
-36 -59 -91 -150 0
-20 -51 -112 150 0
-39 62 80 -151 0
28 69 -93 -151 0
-22 -73 83 151 0
19 -64 -93 151 0
37 -72 -115 -152 0
-13 47 111 -153 0
-31 -78 -89 153 0
-33 75 89 153 0
-34 -67 98 153 0
32 -53 -104 153 0
-8 -51 115 153 0
15 53 83 -154 0
9 49 91 -154 0
24 41 93 154 0
-11 -68 95 154 0
38 55 -108 154 0
11 76 -102 -155 0
-10 42 -81 155 0
14 45 -109 -156 0
35 52 109 -156 0
-22 -51 -88 156 0
-4 -50 -107 156 0
-25 75 -110 156 0
14 -52 104 -157 0
-25 -44 110 -157 0
25 -66 -97 157 0
-21 -65 106 157 0
27 -65 109 157 0
18 75 82 -158 0
-3 52 103 -158 0
17 -58 -89 158 0
-15 -55 82 159 0
36 66 98 159 0
